     Program PWSCF v.5.4.0 starts on 25Jun2018 at 17:56:17

     Current dimensions of program PWSCF are:
     Max number of different atomic species (ntypx) = 10
     Max number of k-points (npk) =  40000
     Max angular momentum in pseudopotentials (lmaxx) =  3
               file As.pbe-mt_fhi.UPF: wavefunction(s)  4f renormalized
               file Se.pbe-mt_fhi.UPF: wavefunction(s)  4f renormalized

     bravais-lattice index     =            0
     lattice parameter (alat)  =       8.2738  a.u.
     unit-cell volume          =    9643.8962 (a.u.)^3
     number of atoms/cell      =           10
     number of atomic types    =            2
     number of electrons       =        56.00
     number of Kohn-Sham states=           34
     kinetic-energy cutoff     =      70.0000  Ry
     charge density cutoff     =     280.0000  Ry
     convergence threshold     =      1.0E-08
     mixing beta               =       0.7000
     number of iterations used =            8  plain     mixing
     Exchange-correlation      = PBE ( 1  4  3  4 0 0)
     nstep                     =           50

     celldm(1)=   8.273761  celldm(2)=   0.000000  celldm(3)=   0.000000
     celldm(4)=   0.000000  celldm(5)=   0.000000  celldm(6)=   0.000000

     crystal axes: (cart. coord. in units of alat)
               a(1) = (   0.999994  -0.003426   0.000000 )
               a(2) = (  -0.990421   2.767839   0.000000 )
               a(3) = (   0.000000   0.000000   6.159397 )

     reciprocal axes: (cart. coord. in units 2 pi/alat)
               b(1) = (  1.001233  0.358273  0.000000 )
               b(2) = (  0.001239  0.361736  0.000000 )
               b(3) = (  0.000000  0.000000  0.162354 )

     PseudoPot. # 1 for As read from file:
     /home/beachk2/PSEUDO/upf_files/PBE/MartinsTroullier/As.pbe-mt_fhi.UPF
     MD5 check sum: 9c0f5dd9d369d21dd57660ed5a27ee1c
     Pseudo is Norm-conserving, Zval =  5.0
     Generated using FHI98PP, converted with fhi2upf.x v.5.0.2
     Using radial grid of  531 points,  3 beta functions with:
                l(1) =   0
                l(2) =   1
                l(3) =   3

     PseudoPot. # 2 for Se read from file:
     /home/beachk2/PSEUDO/upf_files/PBE/MartinsTroullier/Se.pbe-mt_fhi.UPF
     MD5 check sum: 9f5eeb2c03cdb8d988106d0b99ed4143
     Pseudo is Norm-conserving, Zval =  6.0
     Generated using FHI98PP, converted with fhi2upf.x v.5.0.2
     Using radial grid of  533 points,  3 beta functions with:
                l(1) =   0
                l(2) =   1
                l(3) =   3

     atomic species   valence    mass     pseudopotential
        As             5.00    74.92160     As( 1.00)
        Se             6.00    78.96000     Se( 1.00)

     No symmetry found

                                    s                        frac. trans.

      isym =  1     identity

 cryst.   s( 1) = (     1          0          0      )
                  (     0          1          0      )
                  (     0          0          1      )

 cart.    s( 1) = (  1.0000000  0.0000000  0.0000000 )
                  ( -0.0000000  1.0000000  0.0000000 )
                  (  0.0000000  0.0000000  1.0000000 )

   Cartesian axes

     site n.     atom                  positions (alat units)
         1           As  tau(   1) = (  -0.3797909   2.1058707   0.7835554  )
         2           As  tau(   2) = (   0.1154197   0.7219513   0.4689395  )
         3           As  tau(   3) = (  -0.8776608   2.7195473   0.4688225  )
         4           As  tau(   4) = (  -0.3824502   1.3356280   0.7836724  )
         5           Se  tau(   5) = (  -0.0230239   2.5057803   0.9587902  )
         6           Se  tau(   6) = (   0.4721867   1.1218609   0.2937108  )
         7           Se  tau(   7) = (  -0.5236340   2.3171829   0.2935815  )
         8           Se  tau(   8) = (  -0.0284234   0.9332635   0.9589196  )
         9           Se  tau(   9) = (  -0.0490346   1.7195617   0.5356889  )
        10           Se  tau(  10) = (   0.4461760   0.3356423   0.7168121  )

   Crystallographic axes

     site n.     atom                  positions (cryst. coord.)
         1           As  tau(   1) = (  0.3742180  0.7612990  0.1272130  )
         2           As  tau(   2) = (  0.3742180  0.2612990  0.0761340  )
         3           As  tau(   3) = (  0.0955980  0.9826710  0.0761150  )
         4           As  tau(   4) = (  0.0955980  0.4826710  0.1272320  )
         5           Se  tau(   5) = (  0.8747020  0.9064030  0.1556630  )
         6           Se  tau(   6) = (  0.8747020  0.4064030  0.0476850  )
         7           Se  tau(   7) = (  0.3059050  0.8375600  0.0476640  )
         8           Se  tau(   8) = (  0.3059050  0.3375600  0.1556840  )
         9           Se  tau(   9) = (  0.5669780  0.6219670  0.0869710  )
        10           Se  tau(  10) = (  0.5669780  0.1219670  0.1163770  )

     number of k points=    74  gaussian smearing, width (Ry)=  0.0050
                       cart. coord. in units 2pi/alat
        k(    1) = (   0.0000000   0.0000000   0.0000000), wk =   0.0138889
        k(    2) = (   0.0001033   0.0301447   0.0000000), wk =   0.0277778
        k(    3) = (   0.0002066   0.0602894   0.0000000), wk =   0.0277778
        k(    4) = (   0.0003099   0.0904341   0.0000000), wk =   0.0277778
        k(    5) = (   0.0004132   0.1205787   0.0000000), wk =   0.0277778
        k(    6) = (   0.0005165   0.1507234   0.0000000), wk =   0.0277778
        k(    7) = (  -0.0006197  -0.1808681   0.0000000), wk =   0.0138889
        k(    8) = (   0.0834361   0.0298561   0.0000000), wk =   0.0277778
        k(    9) = (   0.0835394   0.0600008   0.0000000), wk =   0.0277778
        k(   10) = (   0.0836427   0.0901455   0.0000000), wk =   0.0277778
        k(   11) = (   0.0837460   0.1202902   0.0000000), wk =   0.0277778
        k(   12) = (   0.0838493   0.1504349   0.0000000), wk =   0.0277778
        k(   13) = (   0.0839526   0.1805795   0.0000000), wk =   0.0277778
        k(   14) = (   0.0828164  -0.1510120   0.0000000), wk =   0.0277778
        k(   15) = (   0.0829197  -0.1208673   0.0000000), wk =   0.0277778
        k(   16) = (   0.0830230  -0.0907226   0.0000000), wk =   0.0277778
        k(   17) = (   0.0831263  -0.0605779   0.0000000), wk =   0.0277778
        k(   18) = (   0.0832295  -0.0304333   0.0000000), wk =   0.0277778
        k(   19) = (   0.0833328  -0.0002886   0.0000000), wk =   0.0277778
        k(   20) = (   0.1668722   0.0597122   0.0000000), wk =   0.0277778
        k(   21) = (   0.1669755   0.0898569   0.0000000), wk =   0.0277778
        k(   22) = (   0.1670788   0.1200016   0.0000000), wk =   0.0277778
        k(   23) = (   0.1671821   0.1501463   0.0000000), wk =   0.0277778
        k(   24) = (   0.1672854   0.1802910   0.0000000), wk =   0.0277778
        k(   25) = (   0.1673887   0.2104357   0.0000000), wk =   0.0277778
        k(   26) = (   0.1662525  -0.1211559   0.0000000), wk =   0.0277778
        k(   27) = (   0.1663558  -0.0910112   0.0000000), wk =   0.0277778
        k(   28) = (   0.1664591  -0.0608665   0.0000000), wk =   0.0277778
        k(   29) = (   0.1665624  -0.0307218   0.0000000), wk =   0.0277778
        k(   30) = (   0.1666657  -0.0005771   0.0000000), wk =   0.0277778
        k(   31) = (   0.1667690   0.0295675   0.0000000), wk =   0.0277778
        k(   32) = (   0.2503084   0.0895683   0.0000000), wk =   0.0277778
        k(   33) = (   0.2504117   0.1197130   0.0000000), wk =   0.0277778
        k(   34) = (   0.2505150   0.1498577   0.0000000), wk =   0.0277778
        k(   35) = (   0.2506182   0.1800024   0.0000000), wk =   0.0277778
        k(   36) = (   0.2507215   0.2101471   0.0000000), wk =   0.0277778
        k(   37) = (   0.2508248   0.2402918   0.0000000), wk =   0.0277778
        k(   38) = (   0.2496886  -0.0912998   0.0000000), wk =   0.0277778
        k(   39) = (   0.2497919  -0.0611551   0.0000000), wk =   0.0277778
        k(   40) = (   0.2498952  -0.0310104   0.0000000), wk =   0.0277778
        k(   41) = (   0.2499985  -0.0008657   0.0000000), wk =   0.0277778
        k(   42) = (   0.2501018   0.0292790   0.0000000), wk =   0.0277778
        k(   43) = (   0.2502051   0.0594237   0.0000000), wk =   0.0277778
        k(   44) = (   0.3337445   0.1194244   0.0000000), wk =   0.0277778
        k(   45) = (   0.3338478   0.1495691   0.0000000), wk =   0.0277778
        k(   46) = (   0.3339511   0.1797138   0.0000000), wk =   0.0277778
        k(   47) = (   0.3340544   0.2098585   0.0000000), wk =   0.0277778
        k(   48) = (   0.3341577   0.2400032   0.0000000), wk =   0.0277778
        k(   49) = (   0.3342609   0.2701479   0.0000000), wk =   0.0277778
        k(   50) = (   0.3331248  -0.0614437   0.0000000), wk =   0.0277778
        k(   51) = (   0.3332280  -0.0312990   0.0000000), wk =   0.0277778
        k(   52) = (   0.3333313  -0.0011543   0.0000000), wk =   0.0277778
        k(   53) = (   0.3334346   0.0289904   0.0000000), wk =   0.0277778
        k(   54) = (   0.3335379   0.0591351   0.0000000), wk =   0.0277778
        k(   55) = (   0.3336412   0.0892798   0.0000000), wk =   0.0277778
        k(   56) = (   0.4171806   0.1492806   0.0000000), wk =   0.0277778
        k(   57) = (   0.4172839   0.1794252   0.0000000), wk =   0.0277778
        k(   58) = (   0.4173872   0.2095699   0.0000000), wk =   0.0277778
        k(   59) = (   0.4174905   0.2397146   0.0000000), wk =   0.0277778
        k(   60) = (   0.4175938   0.2698593   0.0000000), wk =   0.0277778
        k(   61) = (   0.4176971   0.3000040   0.0000000), wk =   0.0277778
        k(   62) = (   0.4165609  -0.0315876   0.0000000), wk =   0.0277778
        k(   63) = (   0.4166642  -0.0014429   0.0000000), wk =   0.0277778
        k(   64) = (   0.4167675   0.0287018   0.0000000), wk =   0.0277778
        k(   65) = (   0.4168707   0.0588465   0.0000000), wk =   0.0277778
        k(   66) = (   0.4169740   0.0889912   0.0000000), wk =   0.0277778
        k(   67) = (   0.4170773   0.1191359   0.0000000), wk =   0.0277778
        k(   68) = (  -0.5006167  -0.1791367   0.0000000), wk =   0.0138889
        k(   69) = (  -0.5005135  -0.1489920   0.0000000), wk =   0.0277778
        k(   70) = (  -0.5004102  -0.1188473   0.0000000), wk =   0.0277778
        k(   71) = (  -0.5003069  -0.0887026   0.0000000), wk =   0.0277778
        k(   72) = (  -0.5002036  -0.0585579   0.0000000), wk =   0.0277778
        k(   73) = (  -0.5001003  -0.0284132   0.0000000), wk =   0.0277778
        k(   74) = (  -0.5012365  -0.3600048   0.0000000), wk =   0.0138889

                       cryst. coord.
        k(    1) = (   0.0000000   0.0000000   0.0000000), wk =   0.0138889
        k(    2) = (  -0.0000000   0.0833333   0.0000000), wk =   0.0277778
        k(    3) = (  -0.0000000   0.1666667   0.0000000), wk =   0.0277778
        k(    4) = (   0.0000000   0.2500000   0.0000000), wk =   0.0277778
        k(    5) = (  -0.0000000   0.3333333   0.0000000), wk =   0.0277778
        k(    6) = (  -0.0000000   0.4166667   0.0000000), wk =   0.0277778
[...]
        k(    7) = (   0.0000000  -0.5000000   0.0000000), wk =   0.0138889
        k(    8) = (   0.0833333  -0.0000000   0.0000000), wk =   0.0277778
        k(    9) = (   0.0833333   0.0833333   0.0000000), wk =   0.0277778
        k(   10) = (   0.0833333   0.1666667   0.0000000), wk =   0.0277778
        k(   11) = (   0.0833333   0.2500000   0.0000000), wk =   0.0277778
        k(   12) = (   0.0833333   0.3333333   0.0000000), wk =   0.0277778
        k(   13) = (   0.0833333   0.4166667   0.0000000), wk =   0.0277778
        k(   14) = (   0.0833333  -0.5000000   0.0000000), wk =   0.0277778
        k(   15) = (   0.0833333  -0.4166667   0.0000000), wk =   0.0277778
        k(   16) = (   0.0833333  -0.3333333   0.0000000), wk =   0.0277778
        k(   17) = (   0.0833333  -0.2500000   0.0000000), wk =   0.0277778
        k(   18) = (   0.0833333  -0.1666667   0.0000000), wk =   0.0277778
        k(   19) = (   0.0833333  -0.0833333   0.0000000), wk =   0.0277778
        k(   20) = (   0.1666667  -0.0000000   0.0000000), wk =   0.0277778
        k(   21) = (   0.1666667   0.0833333   0.0000000), wk =   0.0277778
        k(   22) = (   0.1666667   0.1666667   0.0000000), wk =   0.0277778
        k(   23) = (   0.1666667   0.2500000   0.0000000), wk =   0.0277778
        k(   24) = (   0.1666667   0.3333333   0.0000000), wk =   0.0277778
        k(   25) = (   0.1666667   0.4166667   0.0000000), wk =   0.0277778
        k(   26) = (   0.1666667  -0.5000000   0.0000000), wk =   0.0277778
        k(   27) = (   0.1666667  -0.4166667   0.0000000), wk =   0.0277778
        k(   28) = (   0.1666667  -0.3333333   0.0000000), wk =   0.0277778
        k(   29) = (   0.1666667  -0.2500000   0.0000000), wk =   0.0277778
        k(   30) = (   0.1666667  -0.1666667   0.0000000), wk =   0.0277778
        k(   31) = (   0.1666667  -0.0833333   0.0000000), wk =   0.0277778
        k(   32) = (   0.2500000  -0.0000000   0.0000000), wk =   0.0277778
        k(   33) = (   0.2500000   0.0833333   0.0000000), wk =   0.0277778
        k(   34) = (   0.2500000   0.1666667   0.0000000), wk =   0.0277778
        k(   35) = (   0.2500000   0.2500000   0.0000000), wk =   0.0277778
        k(   36) = (   0.2500000   0.3333333   0.0000000), wk =   0.0277778
        k(   37) = (   0.2500000   0.4166667   0.0000000), wk =   0.0277778
        k(   38) = (   0.2500000  -0.5000000   0.0000000), wk =   0.0277778
        k(   39) = (   0.2500000  -0.4166667   0.0000000), wk =   0.0277778
        k(   40) = (   0.2500000  -0.3333333   0.0000000), wk =   0.0277778
        k(   41) = (   0.2500000  -0.2500000   0.0000000), wk =   0.0277778
        k(   42) = (   0.2500000  -0.1666667   0.0000000), wk =   0.0277778
        k(   43) = (   0.2500000  -0.0833333   0.0000000), wk =   0.0277778
        k(   44) = (   0.3333333  -0.0000000   0.0000000), wk =   0.0277778
        k(   45) = (   0.3333333   0.0833333   0.0000000), wk =   0.0277778
        k(   46) = (   0.3333333   0.1666667   0.0000000), wk =   0.0277778
        k(   47) = (   0.3333333   0.2500000   0.0000000), wk =   0.0277778
        k(   48) = (   0.3333333   0.3333333   0.0000000), wk =   0.0277778
        k(   49) = (   0.3333333   0.4166667   0.0000000), wk =   0.0277778
        k(   50) = (   0.3333333  -0.5000000   0.0000000), wk =   0.0277778
        k(   51) = (   0.3333333  -0.4166667   0.0000000), wk =   0.0277778
        k(   52) = (   0.3333333  -0.3333333   0.0000000), wk =   0.0277778
        k(   53) = (   0.3333333  -0.2500000   0.0000000), wk =   0.0277778
        k(   54) = (   0.3333333  -0.1666667   0.0000000), wk =   0.0277778
        k(   55) = (   0.3333333  -0.0833333   0.0000000), wk =   0.0277778
        k(   56) = (   0.4166667  -0.0000000   0.0000000), wk =   0.0277778
        k(   57) = (   0.4166667   0.0833333   0.0000000), wk =   0.0277778
        k(   58) = (   0.4166667   0.1666667   0.0000000), wk =   0.0277778
        k(   59) = (   0.4166667   0.2500000   0.0000000), wk =   0.0277778
        k(   60) = (   0.4166667   0.3333333   0.0000000), wk =   0.0277778
        k(   61) = (   0.4166667   0.4166667   0.0000000), wk =   0.0277778
        k(   62) = (   0.4166667  -0.5000000   0.0000000), wk =   0.0277778
        k(   63) = (   0.4166667  -0.4166667   0.0000000), wk =   0.0277778
        k(   64) = (   0.4166667  -0.3333333   0.0000000), wk =   0.0277778
        k(   65) = (   0.4166667  -0.2500000   0.0000000), wk =   0.0277778
        k(   66) = (   0.4166667  -0.1666667   0.0000000), wk =   0.0277778
        k(   67) = (   0.4166667  -0.0833333   0.0000000), wk =   0.0277778
        k(   68) = (  -0.5000000   0.0000000   0.0000000), wk =   0.0138889
        k(   69) = (  -0.5000000   0.0833333   0.0000000), wk =   0.0277778
        k(   70) = (  -0.5000000   0.1666667   0.0000000), wk =   0.0277778
        k(   71) = (  -0.5000000   0.2500000   0.0000000), wk =   0.0277778
        k(   72) = (  -0.5000000   0.3333333   0.0000000), wk =   0.0277778
        k(   73) = (  -0.5000000   0.4166667   0.0000000), wk =   0.0277778
        k(   74) = (  -0.5000000  -0.5000000   0.0000000), wk =   0.0138889

     Largest allocated arrays     est. size (Mb)     dimensions
     Largest temporary arrays     est. size (Mb)     dimensions

     Initial potential from superposition of free atoms
     Check: negative starting charge=   -0.000652

     starting charge   55.99856, renormalised to   56.00000

     negative rho (up, down):  6.524E-04 0.000E+00
     Starting wfc are  160 randomized atomic wfcs

     Writing output data file bn.save

     Self-consistent Calculation

     iteration #  1     ecut=    70.00 Ry     beta=0.70
     Davidson diagonalization with overlap
     c_bands:  1 eigenvalues not converged
     c_bands:  1 eigenvalues not converged
     c_bands:  1 eigenvalues not converged
     c_bands:  1 eigenvalues not converged
     c_bands:  1 eigenvalues not converged
     c_bands:  1 eigenvalues not converged
     c_bands:  1 eigenvalues not converged
     c_bands:  1 eigenvalues not converged
     c_bands:  1 eigenvalues not converged
     c_bands:  1 eigenvalues not converged
     c_bands:  1 eigenvalues not converged
     c_bands:  1 eigenvalues not converged
     c_bands:  1 eigenvalues not converged
     c_bands:  1 eigenvalues not converged
     c_bands:  1 eigenvalues not converged
     c_bands:  1 eigenvalues not converged
     c_bands:  1 eigenvalues not converged
     c_bands:  2 eigenvalues not converged
     c_bands:  1 eigenvalues not converged
     c_bands:  1 eigenvalues not converged
     c_bands:  2 eigenvalues not converged
     ethr =  1.00E-06,  avg # of iterations = 17.9

[...]

     negative rho (up, down):  1.685E-08 0.000E+00

[...]

     total energy              =    -164.01484902 Ry
     Harris-Foulkes estimate   =    -164.01484902 Ry
     estimated scf accuracy    <          1.7E-10 Ry

     iteration # 16     ecut=    70.00 Ry     beta=0.70
     Davidson diagonalization with overlap
     ethr =  3.03E-13,  avg # of iterations =  2.0

     End of self-consistent calculation

[...]

          k = 0.4049 0.1188 0.0000 ( 98497 PWs)   bands (ev):

[...]

          k =-0.4866-0.3590 0.0000 ( 98470 PWs)   bands (ev):

   -17.1281 -17.1280 -16.6257 -16.6256 -15.7330 -15.7329 -13.0482 -13.0482
   -12.6963 -12.6963  -7.9769  -7.9768  -7.6971  -7.6971  -7.0640  -7.0639
    -6.6892  -6.6892  -5.4049  -5.4048  -5.2520  -5.2520  -4.5842  -4.5842
    -4.2869  -4.2868  -4.1489  -4.1489  -1.2319  -1.2319  -0.3749  -0.3748
    -0.3199  -0.3198

     occupation numbers
     1.0000   1.0000   1.0000   1.0000   1.0000   1.0000   1.0000   1.0000
     1.0000   1.0000   1.0000   1.0000   1.0000   1.0000   1.0000   1.0000
     1.0000   1.0000   1.0000   1.0000   1.0000   1.0000   1.0000   1.0000
     1.0000   1.0000   1.0000   1.0000   0.0000   0.0000   0.0000   0.0000
     0.0000   0.0000

     the Fermi energy is    -2.2782 ev

!    total energy              =    -164.01484902 Ry
     Harris-Foulkes estimate   =    -164.01484902 Ry
     estimated scf accuracy    <          1.1E-11 Ry

     The total energy is the sum of the following terms:

     one-electron contribution =   -1229.76446697 Ry
     hartree contribution      =     620.06239257 Ry
     xc contribution           =     -36.77830496 Ry
     ewald contribution        =     482.46553034 Ry
     smearing contrib. (-TS)   =      -0.00000000 Ry

     convergence has been achieved in  16 iterations

     Forces acting on atoms (Ry/au):

     atom    1 type  1   force =     0.00003416    0.00005257    0.00006287
     atom    2 type  1   force =     0.00003231    0.00004999   -0.00006219
     atom    3 type  1   force =     0.00001909   -0.00005245   -0.00006035
     atom    4 type  1   force =     0.00002139   -0.00005236    0.00006358
     atom    5 type  2   force =     0.00001609    0.00002948   -0.00004488
     atom    6 type  2   force =     0.00001362    0.00002770    0.00004129
     atom    7 type  2   force =     0.00001987   -0.00002785    0.00003857
     atom    8 type  2   force =     0.00002153   -0.00003178   -0.00003914
     atom    9 type  2   force =    -0.00008920    0.00000210    0.00004709
     atom   10 type  2   force =    -0.00008886    0.00000261   -0.00004683
     The non-local contrib.  to forces
     atom    1 type  1   force =     0.35282526    0.18608994   -0.39275628
     atom    2 type  1   force =     0.35281658    0.18608973    0.39275838
     atom    3 type  1   force =     0.35153157   -0.18851636    0.39276460
     atom    4 type  1   force =     0.35155165   -0.18850260   -0.39275537
     atom    5 type  2   force =    -0.07043512   -0.09971291   -0.40365034
     atom    6 type  2   force =    -0.07045281   -0.09968897    0.40365575
     atom    7 type  2   force =    -0.06975398    0.10018812    0.40365538
     atom    8 type  2   force =    -0.06975209    0.10018441   -0.40365715
     atom    9 type  2   force =    -0.32089648    0.00108830    0.28481617
     atom   10 type  2   force =    -0.32088455    0.00109486   -0.28483257
     The ionic contribution  to forces
     atom    1 type  1   force =    -1.04821113   -1.14063721    5.58363965
     atom    2 type  1   force =    -1.04817949   -1.14052301   -5.58367806
     atom    3 type  1   force =    -1.04034382    1.14768055   -5.58352633
     atom    4 type  1   force =    -1.04037862    1.14776432    5.58325954
     atom    5 type  2   force =     0.26196619    0.39078798   11.75285542
     atom    6 type  2   force =     0.26198933    0.39087412  -11.75304033
     atom    7 type  2   force =     0.25933972   -0.39265900  -11.75282273
     atom    8 type  2   force =     0.25932505   -0.39248396   11.75274725
     atom    9 type  2   force =     1.56726368   -0.00544426   -4.08205742
     atom   10 type  2   force =     1.56722908   -0.00535951    4.08262302
     The local contribution  to forces
     atom    1 type  1   force =     0.69542004    0.95459856   -5.19082165
     atom    2 type  1   force =     0.69539509    0.95448382    5.19085693
     atom    3 type  1   force =     0.68883158   -0.95921799    5.19069983
     atom    4 type  1   force =     0.68884857   -0.95931290   -5.19044046
     atom    5 type  2   force =    -0.19151480   -0.29104668  -11.34925036
     atom    6 type  2   force =    -0.19152281   -0.29115607   11.34942541
     atom    7 type  2   force =    -0.18956603    0.29244236   11.34920479
     atom    8 type  2   force =    -0.18955142    0.29226909  -11.34912808
     atom    9 type  2   force =    -1.24645637    0.00435842    3.79728744
     atom   10 type  2   force =    -1.24643335    0.00426682   -3.79783772
     The core correction contribution to forces
     atom    1 type  1   force =     0.00000000    0.00000000    0.00000000
     atom    2 type  1   force =     0.00000000    0.00000000    0.00000000
     atom    3 type  1   force =     0.00000000    0.00000000    0.00000000
     atom    4 type  1   force =     0.00000000    0.00000000    0.00000000
     atom    5 type  2   force =     0.00000000    0.00000000    0.00000000
     atom    6 type  2   force =     0.00000000    0.00000000    0.00000000
     atom    7 type  2   force =     0.00000000    0.00000000    0.00000000
     atom    8 type  2   force =     0.00000000    0.00000000    0.00000000
     atom    9 type  2   force =     0.00000000    0.00000000    0.00000000
     atom   10 type  2   force =     0.00000000    0.00000000    0.00000000
     The Hubbard contrib.    to forces
     atom    1 type  1   force =     0.00000000    0.00000000    0.00000000
     atom    2 type  1   force =     0.00000000    0.00000000    0.00000000
     atom    3 type  1   force =     0.00000000    0.00000000    0.00000000
     atom    4 type  1   force =     0.00000000    0.00000000    0.00000000
     atom    5 type  2   force =     0.00000000    0.00000000    0.00000000
     atom    6 type  2   force =     0.00000000    0.00000000    0.00000000
     atom    7 type  2   force =     0.00000000    0.00000000    0.00000000
     atom    8 type  2   force =     0.00000000    0.00000000    0.00000000
     atom    9 type  2   force =     0.00000000    0.00000000    0.00000000
     atom   10 type  2   force =     0.00000000    0.00000000    0.00000000
     The SCF correction term to forces
     atom    1 type  1   force =     0.00000005    0.00000126    0.00000248
     atom    2 type  1   force =     0.00000020   -0.00000056    0.00000189
     atom    3 type  1   force =    -0.00000017    0.00000134    0.00000288
     atom    4 type  1   force =    -0.00000015   -0.00000120    0.00000118
     atom    5 type  2   force =    -0.00000012    0.00000108    0.00000171
     atom    6 type  2   force =    -0.00000003   -0.00000140    0.00000178
     atom    7 type  2   force =     0.00000022    0.00000066    0.00000246
     atom    8 type  2   force =     0.00000004   -0.00000134    0.00000016
     atom    9 type  2   force =     0.00000004   -0.00000038    0.00000223
     atom   10 type  2   force =     0.00000003    0.00000043    0.00000176

     Total force =     0.000247     Total SCF correction =     0.000007

     entering subroutine stress ...

          total   stress  (Ry/bohr**3)                   (kbar)     P=   -0.03
   0.00000020  -0.00000000   0.00000000          0.03     -0.00      0.00
  -0.00000000  -0.00000016  -0.00000000         -0.00     -0.02     -0.00
   0.00000000  -0.00000000  -0.00000070          0.00     -0.00     -0.10

     kinetic stress (kbar)    533.66     -0.07      0.00
                               -0.07    512.63     -0.00
                                0.00     -0.00    519.29

     local   stress (kbar) -18224.79     -0.10     -0.00
                               -0.10 -18253.89     -0.00
                               -0.00     -0.00  17948.80

     nonloc. stress (kbar)    399.02     -0.02      0.00
                               -0.02    394.06     -0.00
                                0.00     -0.00    395.79

     hartree stress (kbar)   8940.84     -0.04      0.00
                               -0.04   8929.31      0.00
                                0.00      0.00  -8715.02

     exc-cor stress (kbar)   -167.65      0.00      0.00
                                0.00   -167.26     -0.00
                                0.00     -0.00   -168.42

     corecor stress (kbar)      0.00      0.00      0.00
                                0.00      0.00      0.00
                                0.00      0.00      0.00

     ewald   stress (kbar)   8518.95      0.23      0.00
                                0.23   8585.12      0.00
                                0.00      0.00  -9980.54

     hubbard stress (kbar)      0.00      0.00      0.00
                                0.00      0.00      0.00
                                0.00      0.00      0.00

     london  stress (kbar)      0.00      0.00      0.00
                                0.00      0.00      0.00
                                0.00      0.00      0.00

     XDM     stress (kbar)      0.00      0.00      0.00
                                0.00      0.00      0.00
                                0.00      0.00      0.00

     dft-nl  stress (kbar)      0.00      0.00      0.00
                                0.00      0.00      0.00
                                0.00      0.00      0.00

     TS-vdW  stress (kbar)      0.00      0.00      0.00
                                0.00      0.00      0.00
                                0.00      0.00      0.00

     Writing output data file bn.save

     General routines

     Parallel routines

   This run was terminated on:   1:13:14  26Jun2018

   JOB DONE.